SYSTEM = Generated
ENCUT = 400
ISTART = 1
ICHARG = 1
LCHARG = F
LWAVE =  F
LVTOT = F
LVHAR = F
LELF = F
ISMEAR = 0
SIGMA = 0.05
NSW = 500
IBRION = 2
LREAL = Auto
ISIF = 2
EDIFF = 1E-7
EDIFFG = -5E-2
ISPIN = 2
IVDW = 11
LDAU = T
LDAUTYPE = 2
AMIX = 0.2
BMIX = 0.0001
AMIX_MAG = 0.8
BMIX_MAG = 0.0001
NELMIN = 5 
NELM = 300
GGA = PE 
LREAL = Auto 
ALGO = Fast 
POTIM = 0.2
LDAU = .TRUE.
LDAUTYPE = 2
LDAUL = 3 -1 -1
LDAUU = 6.0 0 0
LDAUJ = 0 0 0
