2
1.0
       10.0496997833         0.0000000000         0.0000000000
       -5.0248498917         8.7032953128         0.0000000000
        0.0000000000         0.0000000000         7.7073001862
    B    S    P    N    O    C   Co   Fe
   13    1    1   13    1    1    1    1
Direct
     0.065580003         0.146320000         0.250000000
     0.582120001         0.167879999         0.250000000
     0.828639984         0.163640007         0.250000000
     0.071120001         0.405490011         0.250000000
     0.834879994         0.416460007         0.250000000
     0.088880002         0.661119998         0.250000000
     0.344509989         0.678879976         0.250000000
     0.603680015         0.684419990         0.250000000
     0.845399976         0.670289993         0.250000000
     0.079709999         0.904600024         0.250000000
     0.333539993         0.915120006         0.250000000
     0.586359978         0.921360016         0.250000000
     0.834930003         0.915069997         0.250000000
     0.311369985         0.135890007         0.250000000
     0.614109993         0.438630015         0.250000000
     0.151339993         0.065569997         0.250000000
     0.415140003         0.078730002         0.250000000
     0.664499998         0.085500002         0.250000000
     0.905539989         0.074529998         0.250000000
     0.671270013         0.334859997         0.250000000
     0.909240007         0.329340011         0.250000000
     0.172490001         0.577509999         0.250000000
     0.684430003         0.598659992         0.250000000
     0.923189998         0.582120001         0.250000000
     0.167879999         0.826810002         0.250000000
     0.420659989         0.840759993         0.250000000
     0.675469995         0.844460011         0.250000000
     0.918529987         0.831470013         0.250000000
     0.126149997         0.301660001         0.250000000
     0.448339999         0.623849988         0.250000000
     0.307610005         0.442389995         0.250000000
     0.413390011         0.336609989         0.250000000
