ASE Generated
1.0
 10.0496997832999995   0.0000000000000000   0.0000000000000000
 -5.0248498916999997   8.7032953127999999   0.0000000000000000
  0.0000000000000000   0.0000000000000000   7.7073001862000003
Ac B N P
2 15 14 1
Cartesian
  0.8684448821244987   3.8502507699131154   1.9268250465500001
  2.4630308371932967   2.9296161395053595   1.9268250465500001
 -0.0761766942156307   1.2734661701688961   1.9268250465500001
  5.0065594531105502   1.4611092084095687   1.9268250465500001
  7.5053165961867787   1.4242073059096592   1.9268250465500001
 -1.3227917792207857   3.5290993121235203   1.9268250465500001
  6.2976442737119740   3.6245744268917552   1.9268250465500001
 -2.4288114135119003   5.7539225797917455   1.9268250465500001
  0.0509519879170866   5.9084929130745767   1.9268250465500001
  2.6276952032992260   5.9567092909536230   1.9268250465500001
  5.1279093568753806   5.8337317542936447   1.9268250465500001
 -3.7444177729510737   7.8730011488379672   1.9268250465500001
 -1.2463638676676199   7.9645596588693079   1.9268250465500001
  1.2630459672280823   8.0188683086541328   1.9268250465500001
  3.7927064948963980   7.9641244157740099   1.9268250465500001
  2.4463479838235620   1.1826908609794593   1.9268250465500001
  1.3709298461561761   5.4295506764507362   1.9268250465500001
  1.1914421025325042   0.5706750475504101   1.9268250465500001
  3.7764259561650202   0.6852104573833345   1.9268250465500001
  6.2484008101134005   0.7441317666509907   1.9268250465500001
  8.7259029788440827   0.6486565822563933   1.9268250465500001
  5.0634408845217758   2.9143854423343223   1.9268250465500001
  7.4827049827097625   2.8663433740538005   1.9268250465500001
 -1.1684283302597003   5.0262400673918322   1.9268250465500001
  3.8701394568667955   5.2103147023344851   1.9268250465500001
  6.3527166988640733   5.0663622761904321   1.9268250465500001
 -2.4674525594354724   7.1959716149827582   1.9268250465500001
  0.0028138405245375   7.3173825062666609   1.9268250465500001
  2.5449858675588213   7.3495848555833367   1.9268250465500001
  5.0529386065336039   7.2365290668766553   1.9268250465500001
 -0.2480266258408760   2.6254360727625432   1.9268250465500001
  3.9675710802053454   3.8175265536028937   1.9268250465500001
